c --- [ banner ] -------------------------------------------------------------
c 
c CaDiCaL Radically Simplified CDCL SAT Solver
c Copyright (c) 2016-2021 A. Biere, M. Fleury, N. Froleyks
c 
c Version 1.5.2 9c38a080b32c28d805e8e6ca21849856b0cda605
c g++ (Ubuntu 7.5.0-3ubuntu1~18.04) 7.5.0 -Wall -Wextra -O3 -DNDEBUG
c Wed Feb 16 23:15:36 EST 2022 Linux fac-vanhoeve01 5.4.0-99-generic x86_64
c 
c --- [ limit ] --------------------------------------------------------------
c 
c setting time limit to 600 seconds real time (due to '-t 600')
c setting conflict limit to 1000000000 conflicts (due to '1000000000')
c 
c --- [ parsing input ] ------------------------------------------------------
c 
c reading DIMACS file from 'ddfwcnfs/queen12_12.col_12.cnf'
c opening file to read 'ddfwcnfs/queen12_12.col_12.cnf'
c found 'p cnf 1728 27468' header
c parsed 27468 clauses in 0.01 seconds process time
c closing file 'ddfwcnfs/queen12_12.col_12.cnf'
c after reading 349650 bytes 0.3 MB
c 
c --- [ options ] ------------------------------------------------------------
c 
c all options are set to their default value
c 
c --- [ solving ] ------------------------------------------------------------
c 
c time measured in process time since initialization
c 
c  seconds  reductions  redundant  irredundant
c         MB    restarts       trail     variables
c          level   conflicts       glue       remaining
c 
c *  0.01  6  0 0   0    0    0  0% 0 27324 1584 92%
c {  0.01  6  0 0   0    0    0  0% 0 27324 1584 92%
c -  0.02  7 11 1   0  300  117 30% 8 27324 1584 92%
c -  0.04  7 11 2  23  902  342 29% 8 27324 1584 92%
c }  0.04  7 11 2  25 1000  406 29% 8 27324 1584 92%
c [  0.04  7  0 2  25 1000  406  0% 0 27324 1584 92%
c O  0.04  7 24 2  25 1002  408 36% 11 27324 1584 92%
c -  0.06  7 16 3  25 1803  695 30% 11 27324 1584 92%
c ]  0.09  7 16 3  26 3001 1517 29% 12 27324 1584 92%
c {  0.09  7 11 3  26 3001 1517 29% 8 27324 1584 92%
c F  0.09  7 11 3  27 3003 1519 29% 8 27324 1584 92%
c -  0.10  8 11 4  27 3003 1107 29% 8 27324 1584 92%
c -  0.13  8 12 5 104 4504 1146 30% 9 27324 1584 92%
c #  0.18  8 11 5 204 6004 1879 30% 9 27324 1584 92%
c -  0.19  8 11 6 216 6304 1343 30% 9 27324 1584 92%
c }  0.20  8 11 6 237 7004 1735 30% 9 27324 1584 92%
c [  0.21  8 16 6 237 7004 1735 29% 12 27324 1584 92%
c s  0.24  8 19 6 238 8218 2286 30% 13 27324 1584 92%
c e  0.31  9 19 6 238 8218  156 30% 13 19480 1188 69%
c s  0.32  9 19 6 238 8218  153 30% 13 19480 1188 69%
c 
c  seconds  reductions  redundant   irredundant
c         MB    restarts       trail      variables
c          level   conflicts       glue        remaining
c 
c ^  0.32  9 19 6 238 8218  153 30% 13 19480 1188 69%
c -  0.33  9 19 7 238 8404  287 25% 13 19480 1188 69%
c I  0.38  9 21 7 239 10005 1535 25% 14 19480 1188 69%
c -  0.44  9 31 8 240 10806 2170 43% 18 19480 1188 69%
c -  0.75 10 45 9 242 13506 3236 63% 28 19480 1188 69%
c ]  0.94 10 50 9 242 15004 4644 67% 32 19480 1188 69%
c {  0.94 10 11 9 242 15004 4644 44% 9 19480 1188 69%
c B  0.94 10 11 9 243 15007 4646 44% 9 19480 1188 69%
c -  0.98  9 11 10 309 16506 3308 40% 9 19480 1188 69%
c -  1.07  9 11 11 441 19807 2601 35% 9 19480 1188 69%
c W  1.14  9 11 11 471 21008 3116 33% 9 19480 1188 69%
c -  1.23  9 13 12 663 23408 2994 34% 10 19480 1188 69%
c s  1.26  9 12 12 699 24360 2747 33% 10 19480 1188 69%
c s  1.31  9 12 12 699 24360 2399 33% 10 19480 1188 69%
c ^  1.31  9 12 12 699 24360 2399 33% 10 19480 1188 69%
c -  1.39  9 12 13 715 27309 2753 32% 9 19480 1188 69%
c F  1.41  9 12 13 730 28009 3155 32% 9 19480 1188 69%
c }  1.50  9 12 13 767 31006 4661 31% 9 19480 1188 69%
c [  1.50  9 50 13 767 31006 4661 67% 32 19480 1188 69%
c -  1.52  9 48 14 767 31512 3191 65% 31 19480 1188 69%
c 
c  seconds  reductions    redundant   irredundant
c         MB     restarts        trail      variables
c          level     conflicts       glue        remaining
c 
c B  1.66  9 41 14 770 36012 6323 49% 26 19480 1188 69%
c -  1.66  9 41 15 770 36012 4247 49% 26 19480 1188 69%
c -  2.10 11 52 16 773 40812 5546 59% 29 19480 1188 69%
c W  2.51 11 51 16 774 45013 9178 63% 30 19480 1188 69%
c -  2.60  9 50 17 775 45912 6092 64% 30 19480 1188 69%
c s  2.85  9 49 17 775 48573 8049 67% 30 19480 1188 69%
c w  2.87  9 49 17 775 48573 8048 67% 30 19480 1188 69%
c s  2.91  9 49 17 775 48573 7987 67% 30 19480 1188 69%
c ^  2.92  9 49 17 775 48573 7987 67% 30 19480 1188 69%
c -  3.22 11 48 18 775 51312 6543 68% 30 19480 1188 69%
c O  3.58 11 46 18 776 55014 9592 70% 29 19480 1188 69%
c -  3.77 12 45 19 778 57012 7197 71% 29 19480 1188 69%
c ]  4.32 12 43 19 782 63006 12394 73% 28 19480 1188 69%
c {  4.32 12 12 19 782 63006 12394 31% 9 19480 1188 69%
c -  4.34 12 12 20 783 63013 7504 31% 9 19480 1188 69%
c B  4.45 12 12 20 912 66016 9169 31% 10 19480 1188 69%
c -  4.65 12 14 21 1307 69313 5963 34% 11 19480 1188 69%
c -  5.25 12 20 22 2825 75915 7562 41% 14 19480 1188 69%
c W  5.36 12 20 22 2825 78018 8599 40% 13 19480 1188 69%
c s  5.61 12 22 22 3428 80858 10146 42% 14 19480 1188 69%
c 
c  seconds  reductions      redundant   irredundant
c         MB     restarts          trail      variables
c          level      conflicts        glue        remaining
c 
c w  5.64 12 22 22 3428 80858 10146 42% 14 19480 1188 69%
c s  5.68 12 22 22 3428 80858 9988 42% 14 19480 1188 69%
c ^  5.69 12 22 22 3428 80858 9988 42% 14 19480 1188 69%
c -  5.75 12 21 23 3428 82815 6096 42% 14 19480 1188 69%
c -  6.04 12 20 24 3584 90016 6372 40% 13 19480 1188 69%
c #  6.14 12 21 24 3839 91023 7329 41% 14 19480 1188 69%
c -  6.33 12 19 25 3849 97516 6395 39% 13 19480 1188 69%
c B  6.63 12 18 25 3871 105024 10855 36% 12 19480 1188 69%
c -  6.67 12 18 26 3941 105317 6784 37% 13 19480 1188 69%
c -  7.21 12 20 27 4854 113417 8208 38% 13 19480 1188 69%
c W  7.52 12 19 27 4884 120027 12527 37% 13 19480 1188 69%
c s  7.57 12 19 27 4884 121213 12156 37% 13 19480 1188 69%
c w  7.59 12 19 27 4884 121213 12154 37% 13 19480 1188 69%
c s  7.63 12 19 27 4884 121213 11811 37% 13 19480 1188 69%
c ^  7.63 12 19 27 4884 121213 11811 37% 13 19480 1188 69%
c -  7.66 12 19 28 4884 121818 7167 36% 13 19480 1188 69%
c }  7.84 12 18 28 4887 127006 10733 35% 12 19480 1188 69%
c [  7.84 12 43 28 4887 127006 10733 73% 28 19480 1188 69%
c -  7.98 12 41 29 4887 130518 8626 68% 27 19480 1188 69%
c B  8.18 12 38 29 4892 136028 12502 62% 25 19480 1188 69%
c 
c  seconds  reductions       redundant   irredundant
c         MB     restarts           trail      variables
c          level      conflicts         glue        remaining
c 
c -  8.47 14 41 30 4894 139518 10604 64% 26 19480 1188 69%
c -  9.43 15 42 31 4895 148820 11766 68% 27 19480 1188 69%
c W  9.96 15 42 31 4896 153029 15595 69% 28 19480 1188 69%
c - 10.81 13 42 32 4896 158420 12660 70% 28 19480 1188 69%
c - 12.05 16 43 33 4897 168320 13481 73% 29 19480 1188 69%
c s 12.19 16 43 33 4898 169638 13829 73% 29 19480 1188 69%
c w 12.22 16 43 33 4898 169638 13829 73% 29 19480 1188 69%
c s 12.26 16 43 33 4898 169638 13566 73% 29 19480 1188 69%
c I 12.42 16 43 33 4899 171030 14800 73% 30 19480 1188 69%
c - 13.27 17 52 34 4903 178522 13524 74% 33 19480 1188 69%
c - 15.04 17 56 35 4910 189025 13378 75% 37 19480 1188 69%
c B 15.20 17 56 35 4910 190033 14275 75% 37 19480 1188 69%
c - 16.38 15 59 36 4911 199826 14207 76% 37 19480 1188 69%
c W 18.08 15 57 36 4918 210034 23248 77% 36 19480 1188 69%
c - 18.26 17 57 37 4918 210927 14558 77% 36 19480 1188 69%
c - 19.67 17 54 38 4925 222327 14385 77% 35 19480 1188 69%
c O 20.61 17 52 38 4926 231035 21920 77% 35 19480 1188 69%
c - 20.92 17 51 39 4926 234028 14719 78% 34 19480 1188 69%
c - 22.47 17 49 40 4927 246029 14504 78% 34 19480 1188 69%
c B 23.40 17 47 40 4928 253037 20287 78% 33 19480 1188 69%
c 
c  seconds  reductions       redundant   irredundant
c         MB     restarts           trail      variables
c          level      conflicts         glue        remaining
c 
c ] 23.62 17 47 40 4928 255007 21970 78% 33 19480 1188 69%
c { 23.62 17 18 40 4928 255007 21970 35% 12 19480 1188 69%
c - 23.90 17 19 41 5436 258329 15427 37% 13 19480 1188 69%
c - 24.30 17 18 42 5439 270930 12048 35% 12 19480 1188 69%
c F 24.58 17 17 42 5636 276040 15300 34% 12 19480 1188 69%
c - 24.81 17 17 43 5679 283831 12360 33% 12 19480 1188 69%
c - 25.27 17 16 44 5714 297034 13048 32% 11 19480 1188 69%
c B 25.38 17 16 44 5732 300043 15011 32% 11 19480 1188 69%
c - 25.82 17 16 45 6255 310535 13535 32% 12 19480 1188 69%
c - 26.30 17 15 46 6393 324335 12379 31% 11 19480 1188 69%
c W 26.53 17 15 46 6393 325045 12771 31% 11 19480 1188 69%
c - 27.12 17 15 47 6752 338437 12425 30% 11 19480 1188 69%
c # 27.47 17 15 47 6881 351046 19806 30% 11 19480 1188 69%
c - 27.54 17 15 48 7163 352838 12903 29% 11 19480 1188 69%
c - 28.08 17 15 49 9210 367540 12018 29% 11 19480 1188 69%
c B 28.51 17 14 49 9306 378047 17102 29% 11 19480 1188 69%
c - 28.70 17 15 50 9555 382540 12060 29% 11 19480 1188 69%
c - 29.38 17 15 51 10323 397841 13481 30% 11 19480 1188 69%
c W 29.91 17 15 51 10357 406049 17734 30% 11 19480 1188 69%
c - 30.21 17 15 52 10454 413441 12689 29% 11 19480 1188 69%
c 
c  seconds  reductions        redundant   irredundant
c         MB      restarts           trail      variables
c          level       conflicts         glue        remaining
c 
c - 30.80 17 14 53 10579 429344 13797 29% 11 19480 1188 69%
c F 31.01 17 14 53 10589 435050 16722 29% 11 19480 1188 69%
c - 31.50 17 14 54 11268 445544 15060 30% 11 19480 1188 69%
c - 32.11 17 15 55 12151 462044 16151 29% 11 19480 1188 69%
c s 32.13 17 15 55 12151 462044 13445 29% 11 19480 1188 69%
c w 32.17 17 15 55 12151 462044 13435 29% 11 19480 1188 69%
c B 32.31 17 15 55 12440 465051 15129 29% 11 19480 1188 69%
c - 32.85 17 15 56 13199 478844 15119 30% 11 19480 1188 69%
c - 34.09 17 17 57 15093 495946 17326 32% 12 19480 1188 69%
c W 34.39 17 17 57 15120 496053 17431 33% 12 19480 1188 69%
c } 34.87 17 16 57 15309 511007 26365 32% 12 19480 1188 69%
c [ 34.87 17 47 57 15309 511007 26365 78% 33 19480 1188 69%
c - 34.99 17 47 58 15309 513347 15405 77% 32 19480 1188 69%
c W 36.57 17 48 58 15309 528054 27813 75% 31 19480 1188 69%
c - 36.95 17 47 59 15309 531047 20418 75% 31 19480 1188 69%
c - 39.49 21 45 60 15316 549047 22236 77% 31 19480 1188 69%
c I 41.26 21 44 60 15323 561055 33015 77% 31 19480 1188 69%
c - 42.19 24 55 61 15324 567348 23760 77% 34 19480 1188 69%
c - 44.56 24 64 62 15332 585948 23537 77% 38 19480 1188 69%
c B 45.89 24 63 62 15338 595057 31569 77% 38 19480 1188 69%
c 
c  seconds  reductions        redundant   irredundant
c         MB      restarts           trail      variables
c          level       conflicts         glue        remaining
c 
c - 47.13 20 66 63 15339 604851 24253 77% 38 19480 1188 69%
c - 49.85 25 62 64 15341 624052 24413 78% 37 19480 1188 69%
c W 51.04 25 61 64 15346 630058 29579 78% 37 19480 1188 69%
c - 53.37 25 58 65 15353 643557 25455 78% 36 19480 1188 69%
c - 56.83 25 54 66 15361 663357 26557 79% 35 19480 1188 69%
c O 57.20 25 53 66 15362 666059 28745 79% 35 19480 1188 69%
c - 57.91 25 48 67 15370 683458 21376 70% 31 19480 1188 69%
c B 58.86 25 44 67 15371 703062 35362 61% 29 19480 1188 69%
c - 58.94 25 45 68 15371 703860 20832 61% 29 19480 1188 69%
c - 61.50 26 49 69 15372 724560 24980 65% 31 19480 1188 69%
c W 64.81 26 50 69 15373 741066 40223 67% 31 19480 1188 69%
c - 65.86 26 49 70 15373 745562 26906 68% 32 19480 1188 69%
c - 69.26 26 48 71 15373 766863 27475 70% 32 19480 1188 69%
c I 71.13 26 47 71 15373 780067 38124 71% 32 19480 1188 69%
c - 72.40 33 62 72 15373 788464 27396 72% 37 19480 1188 69%
c s 72.44 33 62 72 15373 788464 25235 72% 37 19480 1188 69%
c w 72.53 33 62 72 15373 788464 25228 72% 37 19480 1188 69%
c - 76.17 36 78 73 15377 810366 28492 73% 45 19480 1188 69%
c B 78.04 36 81 73 15382 820070 37460 74% 48 19480 1188 69%
c - 79.68 34 78 74 15388 832568 28958 75% 47 19480 1188 69%
c 
c  seconds  reductions        redundant   irredundant
c         MB      restarts           trail      variables
c          level       conflicts         glue        remaining
c 
c - 84.26 26 73 75 15398 855070 28145 76% 45 19480 1188 69%
c W 85.88 26 71 75 15402 861072 32879 76% 44 19480 1188 69%
c - 88.48 28 67 76 15404 877871 27781 76% 43 19480 1188 69%
c - 91.44 28 62 77 15411 900972 28292 76% 40 19480 1188 69%
c O 91.63 28 61 77 15413 903073 30098 76% 40 19480 1188 69%
c - 94.74 28 56 78 15422 924373 28021 77% 38 19480 1188 69%
c B 99.11 28 52 78 15433 946074 46101 78% 36 19480 1188 69%
c - 99.44 32 52 79 15434 948074 29232 78% 36 19480 1188 69%
c - 102.95 32 48 80 15436 972074 30092 78% 34 19480 1188 69%
c W 106.91 32 46 80 15436 990075 45161 78% 33 19480 1188 69%
c - 108.16 32 45 81 15436 996374 31755 79% 33 19480 1188 69%
c - 112.49 33 44 82 15446 1020975 31952 79% 33 19480 1188 69%
c ] 112.87 33 44 82 15448 1023008 33733 79% 33 19480 1188 69%
c { 112.87 33 16 82 15448 1023008 33733 32% 12 19480 1188 69%
c # 113.28 33 16 82 15545 1035076 40577 31% 12 19480 1188 69%
c - 113.73 33 15 83 15699 1045875 24051 31% 11 19480 1188 69%
c - 114.83 33 14 84 15905 1071075 22011 30% 11 19480 1188 69%
c B 115.27 33 14 84 16014 1081077 27350 29% 11 19480 1188 69%
c - 116.02 33 15 85 17067 1096576 22780 31% 11 19480 1188 69%
c - 116.98 33 14 86 17491 1122376 21152 30% 11 19480 1188 69%
c 
c  seconds   reductions         redundant   irredundant
c          MB      restarts            trail      variables
c           level        conflicts         glue        remaining
c 
c W 117.96 33 14 86 17510 1128078 24160 30% 11 19480 1188 69%
c - 118.62 33 14 87 17832 1148478 21054 29% 11 19480 1188 69%
c - 119.63 33 13 88 18046 1174880 20979 28% 10 19480 1188 69%
c s 119.67 33 13 88 18046 1174880 16979 28% 10 19480 1188 69%
c w 119.72 33 13 88 18046 1174880 16974 28% 10 19480 1188 69%
c F 119.78 33 13 88 18054 1176079 17728 28% 10 19480 1188 69%
c - 120.64 33 13 89 18476 1201580 20388 27% 10 19480 1188 69%
c B 121.70 33 13 89 19368 1225081 32841 28% 10 19480 1188 69%
c - 122.17 33 14 90 20252 1228581 23186 29% 11 19480 1188 69%
c - 124.05 33 18 91 23952 1255882 28438 35% 12 19480 1188 69%
c W 125.88 33 18 91 25283 1275082 41773 36% 13 19480 1188 69%
c - 126.23 33 18 92 25283 1283483 26371 35% 12 19480 1188 69%
c - 127.58 33 16 93 25351 1311384 25220 32% 12 19480 1188 69%
c # 128.24 33 16 93 25426 1326085 33435 31% 12 19480 1188 69%
c - 128.70 33 15 94 25561 1339584 25799 30% 11 19480 1188 69%
c - 129.87 33 14 95 25876 1368085 25518 29% 11 19480 1188 69%
c B 130.26 33 14 95 25951 1378086 30804 28% 11 19480 1188 69%
c - 131.02 33 14 96 26593 1396885 25216 29% 11 19480 1188 69%
c - 132.15 33 13 97 27227 1425987 24152 28% 10 19480 1188 69%
c W 133.17 33 13 97 27277 1431088 27160 28% 10 19480 1188 69%
c 
c  seconds   reductions         redundant   irredundant
c          MB      restarts            trail      variables
c           level        conflicts         glue        remaining
c 
c - 134.38 33 13 98 27541 1455387 24647 27% 10 19480 1188 69%
c - 135.71 33 12 99 27807 1485088 24182 27% 10 19480 1188 69%
c F 135.71 33 12 99 27807 1485089 24183 27% 10 19480 1188 69%
c - 136.87 33 12 100 28307 1515089 26151 26% 10 19480 1188 69%
c B 137.96 33 12 100 29066 1540093 39184 26% 9 19480 1188 69%
c - 138.56 33 13 101 30121 1545393 26695 28% 10 19480 1188 69%
c - 139.63 33 12 102 30482 1575994 25291 27% 10 19480 1188 69%
c W 141.47 33 12 102 30840 1596096 35717 27% 10 19480 1188 69%
c - 142.00 33 12 103 31070 1606895 24356 27% 10 19480 1188 69%
c s 142.02 33 12 103 31070 1606895 19131 27% 10 19480 1188 69%
c w 142.07 33 12 103 31070 1606895 19130 27% 10 19480 1188 69%
c - 143.26 33 12 104 31757 1638095 22858 27% 9 19480 1188 69%
c # 143.84 33 11 104 32096 1653098 30250 26% 9 19480 1188 69%
c - 144.34 33 11 105 32556 1669597 24566 26% 9 19480 1188 69%
c - 145.60 33 12 106 34125 1701397 27459 27% 10 19480 1188 69%
c B 145.94 33 12 106 34375 1711101 32337 26% 9 19480 1188 69%
c - 147.33 33 15 107 36760 1733498 30031 30% 11 19480 1188 69%
c - 148.57 33 14 108 37342 1765899 26753 29% 10 19480 1188 69%
c W 149.76 33 14 108 37367 1770102 29182 29% 10 19480 1188 69%
c - 151.19 33 15 109 39223 1798600 30820 31% 11 19480 1188 69%
c 
c  seconds    reductions         redundant   irredundant
c          MB       restarts            trail      variables
c           level         conflicts         glue        remaining
c 
c F 152.70 33 15 109 40574 1830103 50423 32% 11 19480 1188 69%
c - 152.80 33 15 110 40582 1831601 30902 32% 11 19480 1188 69%
c - 153.94 33 14 111 40802 1864901 28456 30% 11 19480 1188 69%
c B 155.04 33 14 111 40939 1891104 41976 29% 10 19480 1188 69%
c - 155.55 33 14 112 41782 1898501 28192 30% 11 19480 1188 69%
c - 157.03 33 15 113 43318 1932402 30719 31% 11 19480 1188 69%
c W 159.41 33 16 113 45284 1953107 43908 32% 12 19480 1188 69%
c - 159.88 33 16 114 45447 1966604 31116 31% 12 19480 1188 69%
c - 161.27 33 14 115 45713 2001106 28985 29% 11 19480 1188 69%
c # 161.97 33 14 115 46223 2016108 37840 29% 11 19480 1188 69%
c - 163.22 33 16 116 47805 2035906 32579 31% 12 19480 1188 69%
c } 163.88 33 17 116 48873 2047008 40647 33% 12 19480 1188 69%
c [ 163.88 33 44 116 48873 2047008 40647 79% 33 19480 1188 69%
c - 167.09 33 48 117 48883 2071006 40724 79% 34 19480 1188 69%
c s 167.11 33 48 117 48883 2071006 34091 79% 34 19480 1188 69%
c w 167.24 33 48 117 48883 2071006 34084 79% 34 19480 1188 69%
c I 168.35 33 49 117 48888 2080109 42470 79% 34 19480 1188 69%
c - 172.93 44 55 118 48892 2106408 42568 80% 38 19480 1188 69%
c - 180.87 44 56 119 48907 2142108 45584 80% 39 19480 1188 69%
c B 181.43 44 56 119 48907 2145110 48359 80% 39 19480 1188 69%
c 
c  seconds    reductions         redundant   irredundant
c          MB       restarts            trail      variables
c           level         conflicts         glue        remaining
c 
c - 189.07 34 53 120 48922 2178108 45110 81% 38 19480 1188 69%
c W 197.39 34 52 120 48924 2211111 74494 82% 37 19480 1188 69%
c - 198.15 43 51 121 48924 2214411 46090 82% 37 19480 1188 69%
c - 206.55 43 49 122 48925 2251013 46723 82% 36 19480 1188 69%
c O 212.87 43 48 122 48925 2278112 70368 82% 36 19480 1188 69%
c - 214.27 43 48 123 48925 2287913 48651 82% 35 19480 1188 69%
c - 222.88 43 45 124 48926 2325113 47933 82% 33 19480 1188 69%
c B 226.77 43 43 124 48926 2346113 67093 82% 32 19480 1188 69%
c - 229.31 43 45 125 48926 2362613 49032 82% 32 19480 1188 69%
c - 237.17 51 47 126 48926 2400415 50850 82% 33 19480 1188 69%
c W 241.40 51 47 126 48926 2415114 64763 82% 33 19480 1188 69%
c - 247.93 51 46 127 48933 2438516 51142 82% 33 19480 1188 69%
c - 258.36 51 43 128 48951 2476916 52457 82% 32 19480 1188 69%
c I 260.12 51 43 128 48955 2485116 59742 82% 32 19480 1188 69%
c - 266.32 45 66 129 48961 2515617 52473 82% 43 19480 1188 69%
c - 276.00 42 68 130 48979 2554617 49172 81% 45 19480 1188 69%
c B 276.45 42 69 130 48979 2556117 50550 81% 45 19480 1188 69%
c - 282.40 39 65 131 48989 2593917 48760 81% 43 19480 1188 69%
c s 282.47 39 65 131 48989 2593917 47198 81% 43 19480 1188 69%
c w 282.66 39 65 131 48989 2593917 47186 81% 43 19480 1188 69%
c 
c  seconds    reductions         redundant   irredundant
c          MB       restarts            trail      variables
c           level         conflicts         glue        remaining
c 
c W 290.87 39 61 131 48990 2628118 77261 81% 41 19480 1188 69%
c - 292.44 48 60 132 48995 2633517 50762 81% 41 19480 1188 69%
c - 301.68 48 54 133 49012 2673417 51069 81% 39 19480 1188 69%
c O 307.86 48 52 133 49020 2701121 74994 80% 37 19480 1188 69%
c - 310.16 48 51 134 49023 2713617 53527 80% 36 19480 1188 69%
c - 318.94 48 46 135 49042 2754119 50676 81% 34 19480 1188 69%
c B 323.16 48 44 135 49050 2775123 68076 81% 33 19480 1188 69%
c - 327.96 48 41 136 49052 2794919 50560 81% 32 19480 1188 69%
c - 338.27 48 38 137 49053 2836019 51548 81% 31 19480 1188 69%
c W 342.91 48 37 137 49053 2850124 63088 81% 30 19480 1188 69%
c - 348.69 48 37 138 49053 2877420 52500 80% 30 19480 1188 69%
c - 359.31 51 36 139 49068 2919120 53794 80% 30 19480 1188 69%
c I 361.28 51 36 139 49069 2926126 59492 80% 30 19480 1188 69%
c - 367.17 51 47 140 49084 2961123 53972 80% 35 19480 1188 69%
c B 377.05 51 51 140 49099 3003127 89872 79% 38 19480 1188 69%
c - 377.22 51 51 141 49099 3003425 53199 79% 38 19480 1188 69%
c - 386.43 51 53 142 49115 3046028 53894 79% 39 19480 1188 69%
c W 397.91 51 53 142 49116 3081128 84471 79% 40 19480 1188 69%
c - 400.31 51 53 143 49116 3088928 55915 79% 40 19480 1188 69%
c - 411.83 51 51 144 49137 3132129 57144 79% 39 19480 1188 69%
c 
c  seconds    reductions         redundant   irredundant
c          MB       restarts            trail      variables
c           level         conflicts         glue        remaining
c 
c s 411.92 51 51 144 49137 3132129 56588 79% 39 19480 1188 69%
c w 412.27 51 51 144 49137 3132129 56579 79% 39 19480 1188 69%
c O 418.95 51 50 144 49147 3160129 80599 80% 39 19480 1188 69%
c - 419.72 51 46 145 49148 3175630 54114 72% 35 19480 1188 69%
c - 422.50 51 38 146 49169 3219432 44341 55% 29 19480 1188 69%
c B 424.26 51 35 146 49177 3240131 58389 49% 27 19480 1188 69%
c - 427.17 51 45 147 49179 3263534 50365 55% 29 19480 1188 69%
c - 437.34 51 47 148 49180 3307935 54588 64% 31 19480 1188 69%
c W 442.91 51 46 148 49180 3321132 65471 66% 32 19480 1188 69%
c - 450.07 51 45 149 49180 3352635 55578 70% 32 19480 1188 69%
c - 460.44 51 43 150 49181 3397635 57332 74% 32 19480 1188 69%
c I 461.55 51 43 150 49181 3403134 62253 74% 32 19480 1188 69%
c - 469.83 73 102 151 49181 3442936 59603 76% 51 19480 1188 69%
c B 481.94 73 144 151 49181 3486136 100980 78% 64 19480 1188 69%
c - 482.52 75 144 152 49181 3488538 61045 78% 63 19480 1188 69%
c - 491.86 52 114 153 49182 3534440 58462 80% 56 19480 1188 69%
c W 502.89 52 96 153 49182 3570137 91130 80% 52 19480 1188 69%
c - 506.24 65 92 154 49182 3580640 60443 81% 51 19480 1188 69%
c - 519.37 65 78 155 49182 3627141 60676 81% 48 19480 1188 69%
c O 526.45 65 72 155 49182 3655138 85809 81% 47 19480 1188 69%
c 
c  seconds    reductions         redundant   irredundant
c          MB       restarts            trail      variables
c           level         conflicts         glue        remaining
c 
c - 527.72 65 63 156 49182 3673941 60129 72% 42 19480 1188 69%
c - 534.76 65 64 157 49182 3721041 59540 75% 37 19480 1188 69%
c s 534.86 65 64 157 49182 3721041 56973 75% 37 19480 1188 69%
c w 535.08 65 64 157 49182 3721041 56971 75% 37 19480 1188 69%
c B 538.50 65 60 157 49182 3741139 74889 76% 36 19480 1188 69%
c - 542.57 65 69 158 49190 3768441 61613 77% 38 19480 1188 69%
c - 552.30 70 58 159 49212 3816142 59168 79% 35 19480 1188 69%
c W 557.89 70 56 159 49213 3828142 69646 79% 35 19480 1188 69%
c - 569.77 70 50 160 49228 3864142 61023 80% 34 19480 1188 69%
c - 583.14 70 45 161 49244 3912443 61047 81% 32 19480 1188 69%
c I 583.82 70 44 161 49244 3916143 64229 81% 32 19480 1188 69%
c - 593.23 80 95 162 49250 3961043 62705 81% 51 19480 1188 69%
c ] 599.98 80 87 162 49263 3991710 90709 81% 49 19480 1188 69%
c ? 599.98 80 87 162 49263 3991710 90709 81% 49 19480 1188 69%
c 
c --- [ result ] -------------------------------------------------------------
c 
c UNKNOWN
c 
c --- [ run-time profiling ] -------------------------------------------------
c 
c process time taken by individual solving procedures
c (percentage relative to process time for solving)
c 
c       593.17   98.87% search
c       509.60   84.94% stable
c        58.62    9.77% unstable
c        24.95    4.16% walk
c         6.79    1.13% simplify
c         3.54    0.59% probe
c         1.14    0.19% vivify
c         0.49    0.08% subsume
c         0.47    0.08% ternary
c         0.13    0.02% elim
c         0.01    0.00% parse
c         0.00    0.00% lucky
c   =================================
c       599.97  100.00% solve
c 
c last line shows process time for solving
c (percentage relative to total process time)
c 
c --- [ statistics ] ---------------------------------------------------------
c 
c chronological:            617304        15.46 %  of conflicts
c conflicts:               3991710      6653.20    per second
c decisions:               5675494      9459.66    per second
c eliminated:                  396        22.92 %  of all variables
c fixed:                       144         8.33 %  of all variables
c learned:                 3945279        98.84 %  per conflict
c learned_lits:          326207525       100.00 %  learned literals
c minimized:                     0         0.00 %  learned literals
c shrunken:              132653320        40.67 %  learned literals
c minishrunken:           27639312         8.47 %  learned literals
c propagations:          432804008         0.72 M  per second
c reduced:                 2971544        74.44 %  per conflict
c rephased:                     88     45360.34    interval
c restarts:                  49263        81.03    interval
c stabilizing:                   6        65.80 %  of conflicts
c subsumed:                 880837        11.07 %  of all clauses
c strengthened:              15913         0.20 %  of all clauses
c vivified:                    504         0.01 %  of all clauses
c walked:                       28    142561.07    interval
c weakened:                  11536         2.35    average size
c 
c seconds are measured in process time for solving
c 
c --- [ resources ] ----------------------------------------------------------
c 
c total process time since initialization:       599.98    seconds
c total real time since initialization:          600.00    seconds
c maximum resident set size of process:           96.66    MB
c 
c --- [ shutting down ] ------------------------------------------------------
c 
c exit 0
